\ LP format - for model browsing. Use MPS format to capture full model detail.
Minimize
  0 C0(0) + 0 C1(0) + 0 C2(0) + 0 C3(0) + 0 C4(0) + 0 C5(0) + 0 C6(0)
   + 0 C7(0) + 0 C8(0) + 0 C9(0)
Subject To
Bounds
End
